50
24637

322 230
902 481
727 556
447 936
253 482
825 230
929 883
988 901
324 501
273 386
592 664
271 177
191 902
656 957
450 494
406 618
544 796
154 568
418 134
406 24
643 802
997 373
57 472
341 892
33 455
649 303
658 611
916 613
916 686
830 807
30 394
848 744
51 564
595 256
932 432
433 650
818 333
290 6
777 261
579 393
971 441
462 465
13 771
800 745
591 758
648 39
975 868
223 153
179 636
768 464
